c WARNING: for repeatability, setting FPU to use double precision
d VARIABLES            72356        
d CONSTRAINTS          256404       
c ============================[ Problem Statistics ]=============================
c |                                                                             |
c |  Number of variables:         72356                                         |
c |  Number of clauses:          256404                                         |
c |  Parse time:                   0.04 s                                       |
c |                                                                             |
c ============================[ Search Statistics ]==============================
c | Conflicts |          ORIGINAL         |          LEARNT          | Progress |
c |           |    Vars  Clauses Literals |    Limit  Clauses Lit/Cl |          |
c ===============================================================================
c |       100 |   53084   206774   521051 |    75817      100     39 | 26.635 % |
c |       250 |   53084   206774   521051 |    83398      250     33 | 26.635 % |
c |       475 |   53084   206774   521051 |    91738      475     43 | 26.635 % |
c |       812 |   53084   206774   521051 |   100912      812     47 | 26.635 % |
c |      1318 |   53084   206774   521051 |   111003     1318     61 | 26.635 % |
c |      2077 |   53084   206774   521051 |   122104     2077     60 | 26.635 % |
c |      3216 |   53084   206774   521051 |   134314     3216     67 | 26.635 % |
c |      4924 |   53084   206774   521051 |   147746     4924     75 | 26.635 % |
c |      7486 |   53084   206774   521051 |   162520     7486     77 | 26.635 % |
c |     11330 |   53084   206774   521051 |   178772    11330     83 | 26.635 % |
c |     17096 |   53084   206774   521051 |   196650    17096     92 | 26.635 % |
c |     25745 |   53084   206774   521051 |   216315    25745     93 | 26.635 % |
c |     38719 |   53084   206774   521051 |   237946    38719     93 | 26.635 % |
c |     58180 |   53084   206774   521051 |   261741    58180     86 | 26.635 % |
c |     87372 |   53084   206774   521051 |   287915    87372     88 | 26.635 % |
c |    131161 |   53084   206774   521051 |   316706   131161     89 | 26.635 % |
c |    196845 |   53084   206774   521051 |   348377   196845     86 | 26.635 % |
c |    295371 |   53084   206774   521051 |   383215   295371     80 | 26.635 % |
c |    443160 |   53084   206774   521051 |   421536    66065     67 | 26.635 % |
c |    664843 |   53084   206774   521051 |   463690   287748     60 | 26.635 % |
c ===============================================================================
c restarts              : 1566
c conflicts             : 752279         (2714 /sec)
c decisions             : 1511209        (0.00 % random) (5452 /sec)
c propagations          : 634923771      (2290578 /sec)
c conflict literals     : 51153799       (43.53 % deleted)
d RESTARTS             1566
d FAILURES             752279       
d NODES                1511209      
d BACKTRACKS           1511209      
d PROPAGATIONS         634923771    
d NOGOODSIZE           68.00 
d MEMORY               183.00 
d TIME                 277.189 

s UNSATISFIABLE
